// Efron's 4 dice, the number of each die are re-ordered
// (from the Wikipedia page)
m = 4;
n = 6;
d =
[
   [0,0,4,4,4,4], //  A
   [3,3,3,3,3,3], //  B        
   [2,2,2,2,6,6], //  C
   [1,1,1,5,5,5]  //  D
];
